70 711
1 23 16 47 37 58 50 51 56 65 64 11 48 67 12 34 21 17 43 41 3 14 20 30 44 68 9 27 46 40 61 45 25 39 62 54 33 60 52 10 5 53 6 42 18 4 2 7 32 28 8 26 49 55 19 24 15 57 63 66 22 59 38 69 31 35 70 13 29 36 
